p wcnf 16 59 359
359 1 2 0
359 1 16 0
359 2 4 0
359 2 6 0
359 2 8 0
359 2 12 0
359 2 14 0
359 2 15 0
359 3 9 0
359 4 8 0
359 4 11 0
359 4 12 0
359 4 15 0
359 4 16 0
359 5 8 0
359 5 9 0
359 5 10 0
359 5 11 0
359 5 12 0
359 5 14 0
359 5 15 0
359 5 16 0
359 6 7 0
359 6 10 0
359 6 15 0
359 7 12 0
359 7 13 0
359 7 15 0
359 8 14 0
359 8 15 0
359 9 12 0
359 9 13 0
359 9 15 0
359 9 16 0
359 10 13 0
359 10 14 0
359 11 13 0
359 11 14 0
359 12 13 0
359 12 15 0
359 13 14 0
359 13 15 0
359 13 16 0
15 -1 0
10 -2 0
16 -3 0
11 -4 0
9 -5 0
13 -6 0
13 -7 0
12 -8 0
11 -9 0
13 -10 0
13 -11 0
10 -12 0
9 -13 0
11 -14 0
8 -15 0
12 -16 0
